0 33 33
1 32 33
2 28 32
3 28 31
4 27 29
5 25 26
6 16 25
7 20 25
8 17 22
9 15 20
10 19 19
11 15 18
12 6 16
13 16 16
14 12 16
15 10 12
16 13 13
17 11 12
18 10 10
19 3 8
20 6 8
21 3 6
22 4 4
23 4 5
24 5 5
25 2 3
26 3 3
27 1 1
28 1 1

